  2   0   0   0   0   0   0   0   0   0   0   0   0   0   0   0   0   0   0   0   0   0   0   0   0   0   0   0   0   0   0   0   0   0   0   0   0   0   0   0   0   0   0   0   0   0   0   0   0   0   0   0   0   0   0   0   0   0   0   0   0   0   0   0   0   0   0   0   0   0   0   0   0   0   0   0   0   0   0   0   0   0   0   0   0   0   0   0   0   0   0   0   0   0   0   0   0   0   0   0   0   0   0   0   0   0   0   0   0   0   0   0   0   0   0   0   0   0   0   0   0   0   0   0   0   0   0   0   0   0   0   0   0   0   0   0   0   0   0   0   0   0   0   0   0   0   0   0   0   0   0   0   0   0   0   0   0   0   0   0   0   0   0   0   0   0   0   0   0   0   0   0   0   0   0   0   0   0   0   0   0   0   0   0   0   0   0   0   0   0   0   0   0   0   0   0   0   0   0   0   0   0   0   0   0   0   0   0   0   0   0   0   0   0   0   0   0   0   0   0   0   0   0   0   0   0   0   0   0   0   0   0   0   0   0   0   0   0   0   0   0   0   0   0   0   0   0   0   0   0   0   0   0   0   0   0   0   0   0   0   0   0   0   0   0   0   0   0   0   0   0   0   0   0   0   0   0   0   0   0   0   0   0   0   0   0   0   0   0   0   0   0   0   0   0   0   0   0   0   0   0   0   0   0   0   0   0   0   0   0   0   0   0   0   0   0   0   0   0   0   0   0   0   0   0   0   0   0   0   0   0   0   0   0   0   0   0   0   0   0   0   0   0   0   0   0   0   0   0   0   0   0   0   0   0   0   0   0   0   0   0   0   0   0   0   0   0   0   0   0   0   0   0   0   0   0   0   0   0   0   0   0   0   0   0   0   0   0   0   0   0   0   0   0   0   0   0   0   0   0   0   0   0   0   0   0   0   0   0   0   0   0   0   0   0   0   0   0   0   0   0   0   0   0   0   0   0   0   0   0   0   0   0   0   0   0   0   0   0   0   0   0   0   0   0   0   0   0   0   0   0   0   0   0   0   0   0   0   0   0   0   0   0   0   0   0   0   0   0   0   0   0   0   0   0   0   0   0   0   0   0   0   0   0   0   0   0   0   0   0   0   0   0   0   0   0   0   0   0   0   0   0   0   0   0   0   0   0   0   0   0   0   0   0   0   0   0   0   0   0   0   0   0   0   0   0   0   0   0   0   0   0   0   0   0   0   0   0   0   0   0   0   0   0   0   0   0   0   0   0   0   0   0   0   0   0   0   0   0   0   0   0   0   0   0   0   0   0   0   0   0   0   0   0   0   0   0   0   0   0   0   0   0   0   0   0   0   0   0   0   0   0   0   0   0   0   0   0   0   0   0   0   0   0   0   0   0   0   0   0   0   0   0   0   0   0   0   0   0   0   0   0   0   0   0   0   0   0   0   0   0   0   0   0   0   0   0   0   0   0   0   0   0   0   0   0   0   0   0   0   0   0   0   0   0   0   0   0   0   0   0   0   0   0   0   0   0   0   0   0   0   0   0   0   0   0   0   0   0   0   0   0   0   0   0   0   0   0   0   0   0   0   0   0   0   0   0   0   0   0   0   0   0   0   0   0   0   0   0   0   0   0   0   0   0   0   0   0   0   0   0   0   0   0   0   0   0   0   0   0   0   0   0   0   0   0   0   0   0   0   0   0   0   0   0   0   0   0   0   0   0   0   0   0   0   0   0   0   0   0   0   0   0   0   0   0   0   0   0   0   0   0   0   0   0   0   0   0   0   0   0   0   0   0   0   0   0   0   0   0   0   0   0   0   0   0   0   0   0   0   0   0   0   0   0   0   0   0   0   0   0   0   0   0   0   0   0   0   0   0   0   0   0   0   0   0   0   0   0   0   0   0   0   0   0   0   0   0   0   0   0   0   0   0   0   0   0   0   0   0   0   0   0   0   0   0   0   0   0   0   0   0   0   0   0   0   0   0   0   0   0   0   0   0   0   0   0   0   0   0   0   0   0   0   0   0   0   0   0   0   0   0   0   0   0   0   0   0   0   0   0   0   0   0   0   0   0   0   0   0   0   0   0   0   0   0   0   0   0   0   0   0   0   0   0   0   0   0   0   0   0   0   0   0   0   0   0   0   0   0   0   0   0   0   0   0   0   0   0   0   0   0   0   0   0   0   0   0   0   0   0   0   0   0   0   0   0   0   0   0   0   0   0   0   0   0   0   0   0   0   0   0   0   0   0   0   0   0   0   0   0   0   0   0   0   0   0   0   0   0 
REMAINING SPACE:      94
ACCUMULATED PRIORITY: 196
EXECUTION TIME:       0.000125200
QTY PRI VAL
[2]  98 203
[0]  97 204
[0]  98 209
[0]  97 209
[0]  98 212
[0]  94 208
[0]  91 202
[0]  94 213
[0]  89 203
[0]  99 228
[0] 100 231
[0]  97 229
[0]  87 209
[0]  90 217
[0]  92 223
[0]  86 211
[0]  98 241
[0]  98 242
[0]  97 245
[0]  91 232
[0]  80 204
[0]  89 227
[0]  84 215
[0]  79 204
[0]  98 255
[0]  89 233
[0]  86 226
[0]  98 258
[0]  80 212
[0]  89 236
[0]  85 226
[0]  77 205
[0]  78 208
[0]  75 203
[0]  84 228
[0]  82 223
[0]  93 254
[0]  90 247
[0]  98 269
[0]  83 228
[0]  78 215
[0]  77 213
[0]  92 256
[0]  98 273
[0]  94 262
[0]  97 271
[0]  86 241
[0]  97 273
[0]  95 268
[0]  91 257
[0]  75 212
[0]  99 281
[0]  99 283
[0]  86 247
[0]  79 227
[0]  83 240
[0]  85 247
[0]  91 265
[0]  81 236
[0]  68 200
[0]  98 289
[0]  81 241
[0]  94 282
[0]  68 205
[0] 100 303
[0]  94 285
[0]  84 255
[0] 100 304
[0]  98 298
[0]  88 268
[0]  77 235
[0]  76 233
[0]  73 224
[0]  94 290
[0] 100 309
[0]  91 282
[0]  90 279
[0]  67 208
[0]  95 297
[0]  78 244
[0]  87 273
[0]  76 240
[0]  97 307
[0]  93 295
[0]  63 200
[0]  83 264
[0]  94 299
[0]  85 271
[0]  63 201
[0]  83 265
[0]  92 294
[0]  68 218
[0]  79 254
[0]  91 293
[0]  81 262
[0]  63 204
[0]  81 263
[0]  97 316
[0]  86 282
[0]  82 269
[0]  71 233
[0]  79 261
[0]  68 225
[0]  67 223
[0]  83 277
[0]  80 267
[0]  87 291
[0]  96 322
[0]  72 242
[0]  88 296
[0]  86 290
[0]  86 292
[0]  85 289
[0]  94 320
[0]  87 297
[0]  67 229
[0]  95 325
[0]  77 264
[0]  98 336
[0]  91 313
[0]  95 327
[0]  95 328
[0]  68 235
[0]  81 280
[0]  67 232
[0]  67 232
[0]  59 206
[0]  91 318
[0]  74 262
[0]  84 299
[0]  79 282
[0]  98 350
[0]  97 347
[0]  69 247
[0]  93 333
[0]  97 348
[0]  86 309
[0]  79 285
[0]  81 294
[0]  98 356
[0]  93 338
[0]  80 291
[0]  83 302
[0]  74 270
[0]  75 274
[0]  99 362
[0]  97 355
[0]  87 319
[0]  94 345
[0]  87 320
[0]  73 269
[0]  80 295
[0]  97 358
[0]  91 336
[0]  92 340
[0]  96 355
[0]  93 344
[0]  80 296
[0]  61 226
[0]  95 352
[0]  60 223
[0]  89 332
[0]  64 239
[0]  90 337
[0]  82 308
[0]  99 372
[0]  93 350
[0]  72 271
[0]  60 227
[0]  76 288
[0]  54 205
[0]  69 262
[0]  71 270
[0]  62 236
[0]  83 316
[0]  70 267
[0]  68 260
[0]  90 345
[0]  78 299
[0]  87 334
[0]  89 342
[0]  70 269
[0]  58 223
[0]  89 343
[0]  57 220
[0]  74 286
[0] 100 387
[0]  71 275
[0]  88 341
[0]  73 283
[0]  88 342
[0]  71 276
[0]  91 355
[0]  79 310
[0]  62 244
[0]  78 307
[0]  79 311
[0]  69 272
[0]  96 380
[0]  55 219
[0]  78 311
[0]  87 348
[0]  63 252
[0]  77 309
[0]  72 289
[0]  70 283
[0]  84 340
[0]  61 247
[0]  77 312
[0]  96 390
[0]  57 233
[0]  67 274
[0]  73 299
[0]  59 242
[0]  78 320
[0]  66 271
[0]  97 399
[0]  78 321
[0] 100 412
[0]  89 367
[0]  95 393
[0]  80 331
[0]  81 336
[0] 100 416
[0]  82 342
[0]  68 284
[0]  95 399
[0]  71 299
[0]  52 219
[0]  80 337
[0]  88 374
[0]  59 252
[0]  74 317
[0]  89 383
[0]  94 405
[0]  80 345
[0]  96 414
[0]  82 354
[0]  78 337
[0]  83 359
[0]  87 378
[0]  60 261
[0]  82 357
[0]  60 262
[0]  65 284
[0]  89 389
[0]  80 350
[0]  47 206
[0]  67 294
[0]  68 299
[0]  78 343
[0]  69 304
[0]  63 278
[0]  46 203
[0]  53 234
[0]  89 394
[0]  82 364
[0]  99 440
[0]  89 396
[0]  91 405
[0]  70 312
[0]  48 214
[0] 100 446
[0]  78 348
[0]  65 290
[0]  70 313
[0]  86 386
[0]  97 436
[0]  99 446
[0]  85 385
[0]  50 227
[0]  83 378
[0]  44 201
[0]  58 267
[0]  84 388
[0]  83 384
[0]  93 431
[0]  55 255
[0]  80 371
[0]  92 427
[0]  53 246
[0]  79 367
[0]  72 335
[0]  51 238
[0] 100 468
[0]  71 333
[0]  49 230
[0]  93 437
[0]  69 325
[0]  85 402
[0]  50 237
[0]  88 418
[0]  84 399
[0]  64 304
[0]  78 371
[0]  87 415
[0]  92 439
[0]  99 473
[0]  77 368
[0]  75 360
[0]  86 414
[0]  73 352
[0]  46 222
[0]  75 362
[0]  60 290
[0]  60 290
[0]  82 397
[0]  57 276
[0]  87 422
[0]  81 394
[0]  78 380
[0]  83 406
[0]  51 250
[0] 100 491
[0]  93 458
[0]  93 458
[0]  88 434
[0]  58 287
[0]  83 411
[0]  86 426
[0]  70 347
[0]  55 273
[0]  58 288
[0]  93 462
[0]  67 333
[0]  80 398
[0]  43 214
[0]  82 409
[0]  90 449
[0]  74 370
[0]  58 290
[0]  53 265
[0]  66 330
[0]  64 321
[0]  63 317
[0]  75 378
[0]  94 474
[0]  88 445
[0]  96 487
[0]  71 361
[0]  46 234
[0]  61 311
[0]  80 408
[0]  79 403
[0]  48 245
[0]  66 337
[0]  81 414
[0]  60 307
[0]  88 451
[0]  79 405
[0]  86 441
[0]  68 349
[0]  95 488
[0]  64 329
[0]  55 283
[0]  72 371
[0]  52 268
[0]  87 449
[0]  59 305
[0]  82 424
[0]  45 233
[0]  73 378
[0]  67 347
[0]  87 451
[0]  74 384
[0]  79 410
[0]  73 379
[0]  57 296
[0]  58 302
[0]  86 448
[0]  57 297
[0]  53 277
[0]  61 319
[0]  51 267
[0]  66 346
[0]  76 402
[0]  86 455
[0]  51 270
[0]  61 323
[0]  91 482
[0]  75 398
[0]  78 414
[0]  38 202
[0]  76 404
[0]  82 436
[0]  82 437
[0]  83 443
[0]  74 395
[0]  47 251
[0]  64 342
[0]  48 257
[0]  63 338
[0]  41 220
[0]  42 226
[0]  56 302
[0]  89 480
[0]  81 437
[0]  86 465
[0]  41 222
[0]  62 336
[0]  89 483
[0]  56 304
[0]  50 272
[0]  72 392
[0]  73 398
[0]  90 491
[0]  54 295
[0]  88 481
[0]  49 268
[0]  81 445
[0]  81 446
[0]  63 347
[0]  49 271
[0]  88 487
[0]  86 476
[0]  76 421
[0]  83 461
[0]  41 228
[0]  87 485
[0]  45 251
[0]  41 229
[0]  85 475
[0]  66 369
[0]  59 330
[0]  42 235
[0]  87 487
[0]  56 314
[0]  70 393
[0]  73 410
[0]  42 236
[0]  79 444
[0]  37 208
[0]  47 265
[0]  75 423
[0]  67 379
[0]  74 419
[0]  60 340
[0]  82 465
[0]  77 438
[0]  68 387
[0]  69 394
[0]  84 480
[0]  86 492
[0]  82 471
[0]  83 477
[0]  78 449
[0]  50 288
[0]  69 398
[0]  39 225
[0]  44 254
[0]  86 497
[0]  71 411
[0]  58 336
[0]  83 481
[0]  49 284
[0]  65 377
[0]  79 459
[0]  76 442
[0]  78 454
[0]  78 454
[0]  52 304
[0]  85 497
[0]  53 310
[0]  64 375
[0]  65 382
[0]  67 394
[0]  50 295
[0]  55 325
[0]  37 219
[0]  46 274
[0]  48 287
[0]  63 377
[0]  77 461
[0]  82 491
[0]  63 378
[0]  43 258
[0]  76 456
[0]  63 378
[0]  46 276
[0]  82 493
[0]  45 271
[0]  49 296
[0]  45 272
[0]  33 200
[0]  68 413
[0]  46 281
[0]  71 435
[0]  46 282
[0]  68 417
[0]  49 301
[0]  67 412
[0]  73 449
[0]  67 413
[0]  58 358
[0]  67 414
[0]  79 489
[0]  41 254
[0]  35 217
[0]  79 490
[0]  74 462
[0]  54 338
[0]  74 464
[0]  76 477
[0]  66 415
[0]  57 359
[0]  37 234
[0]  52 329
[0]  71 450
[0]  71 450
[0]  38 241
[0]  75 476
[0]  37 235
[0]  36 229
[0]  59 376
[0]  55 351
[0]  55 351
[0]  68 434
[0]  64 409
[0]  62 397
[0]  68 436
[0]  72 462
[0]  50 321
[0]  52 334
[0]  63 405
[0]  32 206
[0]  32 206
[0]  72 464
[0]  46 297
[0]  72 466
[0]  59 382
[0]  59 382
[0]  48 311
[0]  66 429
[0]  72 470
[0]  45 294
[0]  72 471
[0]  66 433
[0]  49 322
[0]  56 368
[0]  61 401
[0]  66 434
[0]  55 362
[0]  37 244
[0]  48 317
[0]  71 470
[0]  69 457
[0]  46 305
[0]  46 305
[0]  62 412
[0]  70 466
[0]  70 466
[0]  38 253
[0]  59 393
[0]  68 453
[0]  37 247
[0]  41 274
[0]  39 261
[0]  39 262
[0]  71 477
[0]  59 397
[0]  60 404
[0]  34 229
[0]  47 317
[0]  62 420
[0]  71 482
[0]  34 231
[0]  70 476
[0]  70 477
[0]  71 484
[0]  50 341
[0]  57 389
[0]  31 212
[0]  57 390
[0]  51 349
[0]  43 295
[0]  66 454
[0]  58 399
[0]  34 234
[0]  67 462
[0]  48 331
[0]  71 490
[0]  69 477
[0]  63 437
[0]  48 333
[0]  67 465
[0]  68 472
[0]  57 397
[0]  63 439
[0]  68 474
[0]  63 441
[0]  54 379
[0]  39 274
[0]  60 422
[0]  64 451
[0]  52 368
[0]  51 362
[0]  29 206
[0]  67 476
[0]  70 499
[0]  53 378
[0]  68 485
[0]  29 207
[0]  63 450
[0]  65 466
[0]  41 294
[0]  37 266
[0]  63 453
[0]  61 439
[0]  66 475
[0]  52 375
[0]  66 476
[0]  50 361
[0]  44 318
[0]  61 442
[0]  51 370
[0]  66 479
[0]  68 494
[0]  55 400
[0]  63 459
[0]  41 299
[0]  40 293
[0]  36 264
[0]  42 309
[0]  41 302
[0]  44 325
[0]  56 415
[0]  30 224
[0]  65 486
[0]  53 397
[0]  54 405
[0]  32 240
[0]  60 450
[0]  51 383
[0]  62 470
[0]  34 258
[0]  56 425
[0]  57 434
[0]  29 221
[0]  64 488
[0]  55 420
[0]  36 275
[0]  35 268
[0]  42 322
[0]  31 238
[0]  41 315
[0]  42 324
[0]  36 278
[0]  62 479
[0]  57 442
[0]  42 328
[0]  59 461
[0]  33 258
[0]  41 321
[0]  30 236
[0]  37 292
[0]  54 427
[0]  58 460
[0]  55 437
[0]  60 477
[0]  61 485
[0]  57 454
[0]  41 327
[0]  59 471
[0]  57 457
[0]  40 321
[0]  31 250
[0]  46 371
[0]  45 363
[0]  45 363
[0]  35 283
[0]  46 372
[0]  28 227
[0]  49 399
[0]  31 253
[0]  51 418
[0]  60 492
[0]  52 427
[0]  53 436
[0]  51 420
[0]  58 479
[0]  37 306
[0]  59 489
[0]  39 324
[0]  30 251
[0]  31 260
[0]  51 428
[0]  46 387
[0]  56 472
[0]  50 423
[0]  47 398
[0]  31 263
[0]  34 289
[0]  34 289
[0]  30 255
[0]  46 392
[0]  58 495
[0]  45 385
[0]  51 437
[0]  40 343
[0]  37 318
[0]  57 490
[0]  33 285
[0]  28 242
[0]  34 294
[0]  31 269
[0]  25 217
[0]  42 365
[0]  42 366
[0]  32 279
[0]  50 438
[0]  47 412
[0]  56 492
[0]  42 371
[0]  28 248
[0]  27 240
[0]  50 445
[0]  44 394
[0]  53 475
[0]  54 487
[0]  49 442
[0]  28 253
[0]  33 299
[0]  54 490
[0]  23 209
[0]  45 409
[0]  53 483
[0]  32 292
[0]  28 256
[0]  49 449
[0]  53 486
[0]  48 442
[0]  47 434
[0]  34 317
[0]  46 430
[0]  37 346
[0]  37 347
[0]  38 357
[0]  24 226
[0]  48 453
[0]  46 437
[0]  51 485
[0]  27 257
[0]  32 305
[0]  31 296
[0]  29 278
[0]  46 441
[0]  27 259
[0]  38 365
[0]  51 491
[0]  38 366
[0]  31 299
[0]  46 444
[0]  38 368
[0]  29 281
[0]  40 388
[0]  31 301
[0]  43 418
[0]  37 360
[0]  32 312
[0]  40 391
[0]  40 391
[0]  45 440
[0]  33 323
[0]  41 402
[0]  38 376
[0]  50 497
[0]  41 408
[0]  44 439
[0]  49 491
[0]  38 383
[0]  20 202
[0]  44 445
[0]  31 314
[0]  44 447
[0]  30 307
[0]  34 348
[0]  47 484
[0]  36 372
[0]  20 209
[0]  41 432
[0]  42 445
[0]  44 468
[0]  38 405
[0]  25 269
[0]  22 237
[0]  46 496
[0]  28 303
[0]  35 379
[0]  45 488
[0]  35 383
[0]  35 385
[0]  37 409
[0]  45 498
[0]  35 388
[0]  29 322
[0]  19 212
[0]  34 381
[0]  42 477
[0]  23 262
[0]  38 435
[0]  25 287
[0]  18 208
[0]  41 475
[0]  37 429
[0]  37 429
[0]  19 221
[0]  38 442
[0]  23 268
[0]  35 411
[0]  25 296
[0]  24 285
[0]  26 311
[0]  29 348
[0]  39 468
[0]  22 266
[0]  37 450
[0]  29 354
[0]  27 332
[0]  21 260
[0]  37 460
[0]  39 485
[0]  20 252
[0]  39 494
[0]  31 394
[0]  35 452
[0]  16 207
[0]  33 427
[0]  31 403
[0]  16 211
[0]  37 495
[0]  32 429
[0]  29 390
[0]  31 418
[0]  27 365
[0]  23 311
[0]  34 460
[0]  35 478
[0]  31 425
[0]  31 426
[0]  28 387
[0]  32 444
[0]  21 293
[0]  28 391
[0]  34 476
[0]  31 436
[0]  27 382
[0]  20 283
[0]  23 326
[0]  25 355
[0]  26 373
[0]  22 316
[0]  18 259
[0]  23 331
[0]  32 461
[0]  26 377
[0]  34 495
[0]  29 423
[0]  23 336
[0]  22 322
[0]  17 249
[0]  28 411
[0]  30 441
[0]  33 490
[0]  17 253
[0]  17 254
[0]  26 394
[0]  23 349
[0]  17 260
[0]  17 260
[0]  23 352
[0]  22 339
[0]  32 494
[0]  24 371
[0]  23 371
[0]  29 469
[0]  19 308
[0]  15 244
[0]  13 212
[0]  13 215
[0]  16 265
[0]  25 418
[0]  29 493
[0]  20 343
[0]  21 362
[0]  20 345
[0]  27 467
[0]  23 402
[0]  15 263
[0]  28 495
[0]  23 407
[0]  21 372
[0]  18 322
[0]  26 467
[0]  18 327
[0]  26 475
[0]  12 221
[0]  24 443
[0]  12 222
[0]  25 469
[0]  22 413
[0]  21 395
[0]  21 397
[0]  16 306
[0]  18 349
[0]  25 492
[0]  19 374
[0]  24 482
[0]  24 482
[0]  20 402
[0]  22 446
[0]  23 471
[0]  19 390
[0]  15 309
[0]  15 310
[0]  10 209
[0]  23 482
[0]  22 463
[0]  23 486
[0]  22 468
[0]  18 383
[0]  20 430
[0]  12 261
[0]  21 457
[0]  22 480
[0]  15 328
[0]  19 416
[0]  15 330
[0]  21 469
[0]  21 471
[0]  11 252
[0]  16 367
[0]  15 345
[0]  21 490
[0]  13 307
[0]  14 335
[0]  20 484
[0]  14 339
[0]  15 367
[0]  14 344
[0]  17 420
[0]  19 470
[0]  17 421
[0]  15 372
[0]  11 273
[0]  16 399
[0]  14 350
[0]  11 278
[0]  18 455
[0]  16 405
[0]  19 484
[0]  11 281
[0]  18 464
[0]  15 388
[0]  15 388
[0]  17 440
[0]  17 440
[0]  14 365
[0]  19 499
[0]  16 421
[0]  14 372
[0]  15 401
[0]  14 376
[0]  16 431
[0]  16 433
[0]  10 271
[0]  12 327
[0]  18 496
[0]  17 469
[0]  17 476
[0]  11 309
[0]  10 284
[0]  15 428
[0]  11 314
[0]  14 404
[0]  15 433
[0]  14 416
[0]  14 421
[0]  11 333
[0]  12 365
[0]  16 494
[0]  16 497
[0]  16 498
[0]  11 346
[0]  11 349
[0]  15 476
[0]  13 414
[0]  15 480
[0]  12 386
[0]  13 430
[0]  13 441
[0]  12 425
[0]  11 415
[0]  10 378
[0]  10 382
[0]  12 479
[0]  10 419
[0]  10 440
[0]  11 489
[0]  11 494
[0]  10 483
